sing20180710.12
TTAA 60121 48698
99007 28243 22003 00086 27243 21507 92771 22447 27018
85506 20058 27517 70148 08207 29506 50586 05504 19510
40758 15725 12511 30969 29757 08527 25096 40328 08031
20244 52735 06033 15423 68146 05551 10657 77160 07537
88115 80756 07567
77114 08067 421//=
TTCC 60123 48698
70867 71768 29522 50066 69572 08043 30379 59579 09066
20644 /////
88698 71968 29520
77279 09083 42014=
TTDD 6012/ 48698
11986 75161 22883 77560 33795 67374 44698 71968 55566
71769 66461 66574 77416 67773 88374 61378 99343 62777
11298 59779 22264 50984 33236 47585
21212 11926 08526 22874 07042 33826 07013 44823 07010
55812 14004 66788 24510 77714 28524 88702 29023 99666
22503 11647 23510 22636 23511 33630 22510 44603 11003
55576 05510 66516 06035 77496 08045 88437 09550 99393
09573 11359 11066 22319 09563 33279 09083 44236 09567=
